p edge 3170 3080
e 1 2
e 1 3
e 1 4
e 1 5
e 1 6
e 1 7
e 1 8
e 1 9
e 1 10
e 1 11
e 1 12
e 1 13
e 1 14
e 1 15
e 1 16
e 1 17
e 1 18
e 1 19
e 1 20
e 1 21
e 1 22
e 1 23
e 1 24
e 1 25
e 1 26
e 1 27
e 1 28
e 1 29
e 1 30
e 1 31
e 1 32
e 33 34
e 33 35
e 33 36
e 33 37
e 33 38
e 33 39
e 33 40
e 33 41
e 33 42
e 33 43
e 33 44
e 33 45
e 33 46
e 33 47
e 33 48
e 33 49
e 33 50
e 51 52
e 51 53
e 51 54
e 51 55
e 51 56
e 51 57
e 51 58
e 51 59
e 51 60
e 51 61
e 51 62
e 51 63
e 51 64
e 51 65
e 51 66
e 51 67
e 51 68
e 51 69
e 70 71
e 70 72
e 70 73
e 70 74
e 70 75
e 70 76
e 70 77
e 70 78
e 70 79
e 70 80
e 70 81
e 70 82
e 70 83
e 70 84
e 70 85
e 70 86
e 70 87
e 70 88
e 70 89
e 70 90
e 70 91
e 70 92
e 70 93
e 70 94
e 70 95
e 70 96
e 70 97
e 70 98
e 70 99
e 70 100
e 70 101
e 70 102
e 70 103
e 70 104
e 70 105
e 70 106
e 70 107
e 70 108
e 70 109
e 70 110
e 70 111
e 70 112
e 70 113
e 70 114
e 70 115
e 70 116
e 70 117
e 70 118
e 70 119
e 70 120
e 70 121
e 70 122
e 70 123
e 70 124
e 70 125
e 70 126
e 70 127
e 70 128
e 129 130
e 129 131
e 129 132
e 129 133
e 129 134
e 129 135
e 129 136
e 129 137
e 129 138
e 129 139
e 129 140
e 129 141
e 129 142
e 129 143
e 129 144
e 129 145
e 129 146
e 129 147
e 129 148
e 129 149
e 129 150
e 129 151
e 129 152
e 129 153
e 129 154
e 129 155
e 129 156
e 129 157
e 129 158
e 129 159
e 129 160
e 129 161
e 129 162
e 129 163
e 129 164
e 129 165
e 129 166
e 129 167
e 129 168
e 129 169
e 129 170
e 171 172
e 171 173
e 171 174
e 171 175
e 171 176
e 171 177
e 171 178
e 171 179
e 171 180
e 171 181
e 171 182
e 171 183
e 171 184
e 171 185
e 171 186
e 171 187
e 171 188
e 171 189
e 171 190
e 171 191
e 171 192
e 171 193
e 171 194
e 171 195
e 171 196
e 171 197
e 171 198
e 171 199
e 171 200
e 171 201
e 171 202
e 171 203
e 171 204
e 171 205
e 171 206
e 171 207
e 171 208
e 171 209
e 171 210
e 171 211
e 171 212
e 171 213
e 171 214
e 171 215
e 171 216
e 171 217
e 171 218
e 171 219
e 171 220
e 171 221
e 171 222
e 171 223
e 171 224
e 171 225
e 171 226
e 171 227
e 171 228
e 229 230
e 229 231
e 229 232
e 229 233
e 229 234
e 229 235
e 229 236
e 229 237
e 229 238
e 229 239
e 229 240
e 229 241
e 229 242
e 229 243
e 229 244
e 229 245
e 229 246
e 229 247
e 229 248
e 229 249
e 229 250
e 229 251
e 229 252
e 229 253
e 229 254
e 229 255
e 229 256
e 229 257
e 229 258
e 229 259
e 229 260
e 229 261
e 229 262
e 229 263
e 229 264
e 229 265
e 229 266
e 229 267
e 229 268
e 229 269
e 229 270
e 229 271
e 229 272
e 229 273
e 229 274
e 229 275
e 229 276
e 229 277
e 229 278
e 229 279
e 229 280
e 229 281
e 229 282
e 229 283
e 229 284
e 229 285
e 229 286
e 287 288
e 287 289
e 287 290
e 287 291
e 287 292
e 287 293
e 287 294
e 287 295
e 287 296
e 287 297
e 287 298
e 287 299
e 287 300
e 287 301
e 287 302
e 287 303
e 287 304
e 287 305
e 287 306
e 287 307
e 287 308
e 287 309
e 287 310
e 287 311
e 287 312
e 287 313
e 287 314
e 287 315
e 287 316
e 287 317
e 287 318
e 287 319
e 287 320
e 287 321
e 287 322
e 287 323
e 287 324
e 287 325
e 287 326
e 287 327
e 287 328
e 287 329
e 287 330
e 287 331
e 287 332
e 287 333
e 287 334
e 287 335
e 287 336
e 287 337
e 287 338
e 287 339
e 287 340
e 287 341
e 342 343
e 342 344
e 342 345
e 342 346
e 342 347
e 342 348
e 342 349
e 342 350
e 342 351
e 342 352
e 342 353
e 342 354
e 342 355
e 342 356
e 342 357
e 342 358
e 342 359
e 342 360
e 342 361
e 342 362
e 342 363
e 342 364
e 342 365
e 342 366
e 342 367
e 342 368
e 342 369
e 342 370
e 342 371
e 342 372
e 342 373
e 342 374
e 342 375
e 342 376
e 342 377
e 342 378
e 342 379
e 342 380
e 342 381
e 342 382
e 383 384
e 383 385
e 383 386
e 383 387
e 383 388
e 383 389
e 383 390
e 383 391
e 383 392
e 383 393
e 383 394
e 383 395
e 383 396
e 383 397
e 383 398
e 383 399
e 383 400
e 383 401
e 383 402
e 383 403
e 383 404
e 383 405
e 383 406
e 383 407
e 383 408
e 383 409
e 383 410
e 383 411
e 383 412
e 383 413
e 383 414
e 383 415
e 383 416
e 383 417
e 383 418
e 383 419
e 383 420
e 383 421
e 383 422
e 383 423
e 383 424
e 383 425
e 426 427
e 426 428
e 426 429
e 426 430
e 426 431
e 426 432
e 426 433
e 426 434
e 426 435
e 426 436
e 426 437
e 426 438
e 426 439
e 426 440
e 426 441
e 426 442
e 426 443
e 426 444
e 426 445
e 426 446
e 426 447
e 426 448
e 426 449
e 426 450
e 426 451
e 426 452
e 426 453
e 426 454
e 455 456
e 455 457
e 455 458
e 455 459
e 455 460
e 455 461
e 455 462
e 455 463
e 455 464
e 455 465
e 455 466
e 455 467
e 455 468
e 455 469
e 455 470
e 455 471
e 455 472
e 455 473
e 455 474
e 455 475
e 455 476
e 477 478
e 477 479
e 477 480
e 477 481
e 477 482
e 477 483
e 477 484
e 477 485
e 477 486
e 477 487
e 477 488
e 477 489
e 477 490
e 477 491
e 477 492
e 493 494
e 493 495
e 493 496
e 493 497
e 493 498
e 493 499
e 493 500
e 493 501
e 493 502
e 493 503
e 493 504
e 505 506
e 505 507
e 505 508
e 505 509
e 505 510
e 505 511
e 505 512
e 505 513
e 505 514
e 505 515
e 505 516
e 505 517
e 505 518
e 505 519
e 505 520
e 505 521
e 505 522
e 505 523
e 505 524
e 505 525
e 505 526
e 505 527
e 505 528
e 505 529
e 505 530
e 505 531
e 505 532
e 505 533
e 505 534
e 505 535
e 505 536
e 505 537
e 505 538
e 505 539
e 505 540
e 505 541
e 505 542
e 505 543
e 505 544
e 505 545
e 505 546
e 505 547
e 505 548
e 505 549
e 550 551
e 550 552
e 550 553
e 550 554
e 550 555
e 550 556
e 550 557
e 550 558
e 550 559
e 550 560
e 550 561
e 550 562
e 550 563
e 550 564
e 550 565
e 550 566
e 550 567
e 550 568
e 550 569
e 550 570
e 550 571
e 550 572
e 550 573
e 550 574
e 550 575
e 550 576
e 550 577
e 550 578
e 550 579
e 550 580
e 550 581
e 550 582
e 550 583
e 550 584
e 550 585
e 550 586
e 550 587
e 550 588
e 550 589
e 550 590
e 550 591
e 550 592
e 550 593
e 550 594
e 550 595
e 550 596
e 550 597
e 598 599
e 598 600
e 598 601
e 598 602
e 598 603
e 598 604
e 598 605
e 598 606
e 598 607
e 598 608
e 598 609
e 598 610
e 598 611
e 598 612
e 598 613
e 598 614
e 598 615
e 598 616
e 598 617
e 598 618
e 619 620
e 619 621
e 619 622
e 619 623
e 619 624
e 619 625
e 619 626
e 619 627
e 619 628
e 619 629
e 619 630
e 619 631
e 619 632
e 619 633
e 619 634
e 619 635
e 619 636
e 619 637
e 619 638
e 619 639
e 619 640
e 619 641
e 619 642
e 619 643
e 619 644
e 619 645
e 619 646
e 619 647
e 619 648
e 619 649
e 619 650
e 619 651
e 619 652
e 619 653
e 619 654
e 619 655
e 619 656
e 619 657
e 619 658
e 619 659
e 619 660
e 619 661
e 619 662
e 619 663
e 619 664
e 619 665
e 619 666
e 619 667
e 619 668
e 619 669
e 619 670
e 619 671
e 619 672
e 619 673
e 619 674
e 619 675
e 619 676
e 619 677
e 619 678
e 619 679
e 680 681
e 680 682
e 680 683
e 680 684
e 680 685
e 680 686
e 680 687
e 680 688
e 680 689
e 680 690
e 680 691
e 680 692
e 680 693
e 680 694
e 680 695
e 680 696
e 697 698
e 697 699
e 697 700
e 697 701
e 697 702
e 697 703
e 697 704
e 697 705
e 697 706
e 697 707
e 697 708
e 697 709
e 697 710
e 697 711
e 697 712
e 697 713
e 714 715
e 714 716
e 714 717
e 714 718
e 714 719
e 714 720
e 714 721
e 714 722
e 714 723
e 714 724
e 714 725
e 714 726
e 714 727
e 714 728
e 714 729
e 714 730
e 714 731
e 714 732
e 714 733
e 714 734
e 714 735
e 714 736
e 714 737
e 714 738
e 714 739
e 714 740
e 714 741
e 714 742
e 714 743
e 714 744
e 714 745
e 714 746
e 714 747
e 714 748
e 714 749
e 714 750
e 714 751
e 714 752
e 714 753
e 714 754
e 714 755
e 756 757
e 756 758
e 756 759
e 756 760
e 756 761
e 756 762
e 756 763
e 756 764
e 756 765
e 756 766
e 756 767
e 756 768
e 756 769
e 756 770
e 756 771
e 756 772
e 756 773
e 756 774
e 756 775
e 756 776
e 756 777
e 756 778
e 756 779
e 756 780
e 756 781
e 756 782
e 756 783
e 756 784
e 756 785
e 756 786
e 756 787
e 756 788
e 756 789
e 756 790
e 791 792
e 791 793
e 791 794
e 791 795
e 791 796
e 791 797
e 791 798
e 791 799
e 791 800
e 791 801
e 791 802
e 791 803
e 791 804
e 791 805
e 791 806
e 791 807
e 791 808
e 791 809
e 791 810
e 791 811
e 791 812
e 813 814
e 813 815
e 813 816
e 813 817
e 813 818
e 813 819
e 813 820
e 813 821
e 813 822
e 813 823
e 813 824
e 813 825
e 813 826
e 813 827
e 813 828
e 813 829
e 813 830
e 813 831
e 813 832
e 813 833
e 813 834
e 813 835
e 813 836
e 813 837
e 813 838
e 813 839
e 813 840
e 813 841
e 813 842
e 813 843
e 813 844
e 845 846
e 845 847
e 845 848
e 845 849
e 845 850
e 845 851
e 845 852
e 845 853
e 845 854
e 845 855
e 845 856
e 845 857
e 845 858
e 845 859
e 845 860
e 845 861
e 845 862
e 845 863
e 845 864
e 845 865
e 845 866
e 845 867
e 845 868
e 845 869
e 845 870
e 845 871
e 845 872
e 845 873
e 845 874
e 845 875
e 845 876
e 845 877
e 845 878
e 845 879
e 880 881
e 880 882
e 880 883
e 880 884
e 880 885
e 880 886
e 880 887
e 880 888
e 880 889
e 880 890
e 880 891
e 880 892
e 880 893
e 880 894
e 880 895
e 880 896
e 880 897
e 880 898
e 880 899
e 880 900
e 880 901
e 880 902
e 880 903
e 880 904
e 880 905
e 880 906
e 880 907
e 880 908
e 880 909
e 880 910
e 880 911
e 880 912
e 880 913
e 880 914
e 880 915
e 880 916
e 880 917
e 880 918
e 880 919
e 880 920
e 880 921
e 880 922
e 880 923
e 880 924
e 880 925
e 926 927
e 926 928
e 926 929
e 926 930
e 926 931
e 926 932
e 926 933
e 926 934
e 926 935
e 926 936
e 926 937
e 926 938
e 926 939
e 926 940
e 926 941
e 926 942
e 943 944
e 943 945
e 943 946
e 943 947
e 943 948
e 943 949
e 943 950
e 943 951
e 943 952
e 943 953
e 943 954
e 943 955
e 956 957
e 956 958
e 956 959
e 956 960
e 956 961
e 956 962
e 956 963
e 956 964
e 956 965
e 956 966
e 956 967
e 956 968
e 956 969
e 956 970
e 956 971
e 956 972
e 956 973
e 956 974
e 956 975
e 956 976
e 956 977
e 956 978
e 956 979
e 956 980
e 956 981
e 956 982
e 983 984
e 983 985
e 983 986
e 983 987
e 983 988
e 983 989
e 983 990
e 983 991
e 983 992
e 983 993
e 983 994
e 983 995
e 983 996
e 983 997
e 983 998
e 983 999
e 983 1000
e 983 1001
e 983 1002
e 983 1003
e 983 1004
e 983 1005
e 983 1006
e 983 1007
e 983 1008
e 983 1009
e 983 1010
e 983 1011
e 983 1012
e 983 1013
e 983 1014
e 983 1015
e 983 1016
e 983 1017
e 983 1018
e 983 1019
e 983 1020
e 983 1021
e 983 1022
e 983 1023
e 983 1024
e 983 1025
e 983 1026
e 983 1027
e 983 1028
e 983 1029
e 983 1030
e 983 1031
e 983 1032
e 983 1033
e 1034 1035
e 1034 1036
e 1034 1037
e 1034 1038
e 1034 1039
e 1034 1040
e 1034 1041
e 1034 1042
e 1034 1043
e 1034 1044
e 1034 1045
e 1034 1046
e 1034 1047
e 1034 1048
e 1034 1049
e 1034 1050
e 1034 1051
e 1034 1052
e 1034 1053
e 1034 1054
e 1034 1055
e 1034 1056
e 1034 1057
e 1034 1058
e 1034 1059
e 1034 1060
e 1034 1061
e 1034 1062
e 1034 1063
e 1034 1064
e 1034 1065
e 1034 1066
e 1034 1067
e 1034 1068
e 1034 1069
e 1034 1070
e 1034 1071
e 1034 1072
e 1034 1073
e 1034 1074
e 1034 1075
e 1034 1076
e 1034 1077
e 1034 1078
e 1034 1079
e 1034 1080
e 1034 1081
e 1034 1082
e 1034 1083
e 1034 1084
e 1034 1085
e 1034 1086
e 1034 1087
e 1034 1088
e 1034 1089
e 1034 1090
e 1034 1091
e 1092 1093
e 1092 1094
e 1092 1095
e 1092 1096
e 1092 1097
e 1092 1098
e 1092 1099
e 1092 1100
e 1092 1101
e 1092 1102
e 1092 1103
e 1092 1104
e 1092 1105
e 1092 1106
e 1092 1107
e 1092 1108
e 1092 1109
e 1092 1110
e 1092 1111
e 1092 1112
e 1092 1113
e 1092 1114
e 1092 1115
e 1092 1116
e 1092 1117
e 1092 1118
e 1092 1119
e 1092 1120
e 1092 1121
e 1092 1122
e 1092 1123
e 1092 1124
e 1092 1125
e 1092 1126
e 1092 1127
e 1092 1128
e 1092 1129
e 1092 1130
e 1092 1131
e 1092 1132
e 1092 1133
e 1092 1134
e 1092 1135
e 1092 1136
e 1092 1137
e 1092 1138
e 1092 1139
e 1092 1140
e 1092 1141
e 1092 1142
e 1092 1143
e 1092 1144
e 1092 1145
e 1092 1146
e 1092 1147
e 1148 1149
e 1148 1150
e 1148 1151
e 1148 1152
e 1148 1153
e 1148 1154
e 1148 1155
e 1148 1156
e 1148 1157
e 1148 1158
e 1148 1159
e 1148 1160
e 1148 1161
e 1148 1162
e 1148 1163
e 1148 1164
e 1148 1165
e 1148 1166
e 1148 1167
e 1148 1168
e 1148 1169
e 1148 1170
e 1148 1171
e 1148 1172
e 1148 1173
e 1148 1174
e 1148 1175
e 1148 1176
e 1148 1177
e 1148 1178
e 1148 1179
e 1148 1180
e 1148 1181
e 1148 1182
e 1148 1183
e 1148 1184
e 1185 1186
e 1185 1187
e 1185 1188
e 1185 1189
e 1185 1190
e 1185 1191
e 1185 1192
e 1185 1193
e 1185 1194
e 1185 1195
e 1185 1196
e 1185 1197
e 1185 1198
e 1185 1199
e 1185 1200
e 1185 1201
e 1202 1203
e 1202 1204
e 1202 1205
e 1202 1206
e 1202 1207
e 1202 1208
e 1202 1209
e 1202 1210
e 1202 1211
e 1202 1212
e 1202 1213
e 1202 1214
e 1202 1215
e 1202 1216
e 1202 1217
e 1202 1218
e 1202 1219
e 1202 1220
e 1202 1221
e 1202 1222
e 1202 1223
e 1202 1224
e 1202 1225
e 1202 1226
e 1202 1227
e 1202 1228
e 1202 1229
e 1202 1230
e 1231 1232
e 1231 1233
e 1231 1234
e 1231 1235
e 1231 1236
e 1231 1237
e 1231 1238
e 1231 1239
e 1231 1240
e 1231 1241
e 1231 1242
e 1231 1243
e 1231 1244
e 1231 1245
e 1231 1246
e 1231 1247
e 1231 1248
e 1231 1249
e 1231 1250
e 1231 1251
e 1231 1252
e 1231 1253
e 1231 1254
e 1231 1255
e 1231 1256
e 1231 1257
e 1231 1258
e 1231 1259
e 1231 1260
e 1231 1261
e 1231 1262
e 1231 1263
e 1231 1264
e 1231 1265
e 1231 1266
e 1231 1267
e 1231 1268
e 1231 1269
e 1231 1270
e 1231 1271
e 1231 1272
e 1231 1273
e 1231 1274
e 1231 1275
e 1231 1276
e 1231 1277
e 1231 1278
e 1231 1279
e 1231 1280
e 1231 1281
e 1231 1282
e 1231 1283
e 1231 1284
e 1231 1285
e 1231 1286
e 1231 1287
e 1231 1288
e 1231 1289
e 1290 1291
e 1290 1292
e 1290 1293
e 1290 1294
e 1290 1295
e 1290 1296
e 1290 1297
e 1290 1298
e 1290 1299
e 1290 1300
e 1290 1301
e 1290 1302
e 1290 1303
e 1290 1304
e 1305 1306
e 1305 1307
e 1305 1308
e 1305 1309
e 1305 1310
e 1305 1311
e 1305 1312
e 1305 1313
e 1305 1314
e 1305 1315
e 1305 1316
e 1305 1317
e 1305 1318
e 1305 1319
e 1305 1320
e 1305 1321
e 1305 1322
e 1305 1323
e 1305 1324
e 1305 1325
e 1305 1326
e 1305 1327
e 1305 1328
e 1305 1329
e 1305 1330
e 1305 1331
e 1332 1333
e 1332 1334
e 1332 1335
e 1332 1336
e 1332 1337
e 1332 1338
e 1332 1339
e 1332 1340
e 1332 1341
e 1332 1342
e 1343 1344
e 1343 1345
e 1343 1346
e 1343 1347
e 1343 1348
e 1343 1349
e 1343 1350
e 1343 1351
e 1343 1352
e 1343 1353
e 1343 1354
e 1343 1355
e 1343 1356
e 1343 1357
e 1343 1358
e 1359 1360
e 1359 1361
e 1359 1362
e 1359 1363
e 1359 1364
e 1359 1365
e 1359 1366
e 1359 1367
e 1359 1368
e 1359 1369
e 1359 1370
e 1359 1371
e 1359 1372
e 1359 1373
e 1359 1374
e 1359 1375
e 1359 1376
e 1359 1377
e 1359 1378
e 1359 1379
e 1359 1380
e 1359 1381
e 1359 1382
e 1359 1383
e 1359 1384
e 1359 1385
e 1359 1386
e 1359 1387
e 1359 1388
e 1359 1389
e 1359 1390
e 1359 1391
e 1359 1392
e 1359 1393
e 1359 1394
e 1359 1395
e 1359 1396
e 1359 1397
e 1359 1398
e 1359 1399
e 1359 1400
e 1359 1401
e 1402 1403
e 1402 1404
e 1402 1405
e 1402 1406
e 1402 1407
e 1402 1408
e 1402 1409
e 1402 1410
e 1402 1411
e 1402 1412
e 1402 1413
e 1402 1414
e 1402 1415
e 1402 1416
e 1402 1417
e 1402 1418
e 1402 1419
e 1402 1420
e 1402 1421
e 1402 1422
e 1402 1423
e 1402 1424
e 1402 1425
e 1402 1426
e 1402 1427
e 1402 1428
e 1402 1429
e 1402 1430
e 1402 1431
e 1402 1432
e 1402 1433
e 1402 1434
e 1402 1435
e 1402 1436
e 1402 1437
e 1402 1438
e 1402 1439
e 1402 1440
e 1402 1441
e 1402 1442
e 1402 1443
e 1402 1444
e 1402 1445
e 1402 1446
e 1402 1447
e 1402 1448
e 1402 1449
e 1402 1450
e 1402 1451
e 1402 1452
e 1402 1453
e 1402 1454
e 1402 1455
e 1402 1456
e 1402 1457
e 1402 1458
e 1459 1460
e 1459 1461
e 1459 1462
e 1459 1463
e 1459 1464
e 1459 1465
e 1459 1466
e 1459 1467
e 1459 1468
e 1459 1469
e 1459 1470
e 1459 1471
e 1459 1472
e 1459 1473
e 1459 1474
e 1459 1475
e 1459 1476
e 1477 1478
e 1477 1479
e 1477 1480
e 1477 1481
e 1477 1482
e 1477 1483
e 1477 1484
e 1477 1485
e 1477 1486
e 1477 1487
e 1477 1488
e 1477 1489
e 1477 1490
e 1477 1491
e 1477 1492
e 1477 1493
e 1477 1494
e 1477 1495
e 1477 1496
e 1477 1497
e 1477 1498
e 1477 1499
e 1477 1500
e 1477 1501
e 1477 1502
e 1477 1503
e 1477 1504
e 1477 1505
e 1477 1506
e 1477 1507
e 1477 1508
e 1477 1509
e 1477 1510
e 1477 1511
e 1477 1512
e 1477 1513
e 1477 1514
e 1477 1515
e 1477 1516
e 1477 1517
e 1477 1518
e 1477 1519
e 1477 1520
e 1477 1521
e 1477 1522
e 1477 1523
e 1477 1524
e 1477 1525
e 1477 1526
e 1477 1527
e 1477 1528
e 1477 1529
e 1477 1530
e 1477 1531
e 1477 1532
e 1477 1533
e 1534 1535
e 1534 1536
e 1534 1537
e 1534 1538
e 1534 1539
e 1534 1540
e 1534 1541
e 1534 1542
e 1534 1543
e 1534 1544
e 1534 1545
e 1534 1546
e 1534 1547
e 1534 1548
e 1534 1549
e 1534 1550
e 1534 1551
e 1534 1552
e 1534 1553
e 1534 1554
e 1534 1555
e 1534 1556
e 1534 1557
e 1534 1558
e 1534 1559
e 1534 1560
e 1534 1561
e 1534 1562
e 1534 1563
e 1534 1564
e 1534 1565
e 1534 1566
e 1534 1567
e 1534 1568
e 1534 1569
e 1534 1570
e 1534 1571
e 1572 1573
e 1572 1574
e 1572 1575
e 1572 1576
e 1572 1577
e 1572 1578
e 1572 1579
e 1572 1580
e 1572 1581
e 1572 1582
e 1572 1583
e 1572 1584
e 1572 1585
e 1572 1586
e 1572 1587
e 1572 1588
e 1572 1589
e 1572 1590
e 1572 1591
e 1572 1592
e 1572 1593
e 1572 1594
e 1572 1595
e 1572 1596
e 1572 1597
e 1572 1598
e 1572 1599
e 1572 1600
e 1572 1601
e 1572 1602
e 1572 1603
e 1572 1604
e 1572 1605
e 1572 1606
e 1572 1607
e 1572 1608
e 1572 1609
e 1572 1610
e 1572 1611
e 1572 1612
e 1572 1613
e 1572 1614
e 1572 1615
e 1572 1616
e 1572 1617
e 1572 1618
e 1572 1619
e 1572 1620
e 1572 1621
e 1572 1622
e 1572 1623
e 1572 1624
e 1572 1625
e 1572 1626
e 1572 1627
e 1572 1628
e 1572 1629
e 1572 1630
e 1572 1631
e 1572 1632
e 1633 1634
e 1633 1635
e 1633 1636
e 1633 1637
e 1633 1638
e 1633 1639
e 1633 1640
e 1633 1641
e 1633 1642
e 1633 1643
e 1633 1644
e 1633 1645
e 1633 1646
e 1633 1647
e 1633 1648
e 1633 1649
e 1633 1650
e 1633 1651
e 1633 1652
e 1633 1653
e 1633 1654
e 1633 1655
e 1633 1656
e 1633 1657
e 1633 1658
e 1633 1659
e 1633 1660
e 1633 1661
e 1633 1662
e 1633 1663
e 1633 1664
e 1633 1665
e 1633 1666
e 1633 1667
e 1633 1668
e 1633 1669
e 1633 1670
e 1633 1671
e 1633 1672
e 1633 1673
e 1633 1674
e 1633 1675
e 1633 1676
e 1633 1677
e 1633 1678
e 1633 1679
e 1633 1680
e 1633 1681
e 1633 1682
e 1633 1683
e 1633 1684
e 1633 1685
e 1633 1686
e 1633 1687
e 1633 1688
e 1633 1689
e 1690 1691
e 1690 1692
e 1690 1693
e 1690 1694
e 1690 1695
e 1690 1696
e 1690 1697
e 1690 1698
e 1690 1699
e 1690 1700
e 1690 1701
e 1690 1702
e 1690 1703
e 1690 1704
e 1690 1705
e 1690 1706
e 1690 1707
e 1690 1708
e 1690 1709
e 1690 1710
e 1690 1711
e 1690 1712
e 1690 1713
e 1690 1714
e 1690 1715
e 1690 1716
e 1690 1717
e 1690 1718
e 1690 1719
e 1690 1720
e 1690 1721
e 1690 1722
e 1690 1723
e 1690 1724
e 1690 1725
e 1690 1726
e 1690 1727
e 1690 1728
e 1690 1729
e 1690 1730
e 1690 1731
e 1690 1732
e 1690 1733
e 1690 1734
e 1690 1735
e 1690 1736
e 1690 1737
e 1690 1738
e 1690 1739
e 1690 1740
e 1690 1741
e 1690 1742
e 1690 1743
e 1690 1744
e 1690 1745
e 1690 1746
e 1690 1747
e 1690 1748
e 1690 1749
e 1750 1751
e 1750 1752
e 1750 1753
e 1750 1754
e 1750 1755
e 1750 1756
e 1750 1757
e 1750 1758
e 1750 1759
e 1750 1760
e 1750 1761
e 1750 1762
e 1750 1763
e 1750 1764
e 1750 1765
e 1750 1766
e 1750 1767
e 1750 1768
e 1750 1769
e 1750 1770
e 1750 1771
e 1750 1772
e 1750 1773
e 1750 1774
e 1750 1775
e 1750 1776
e 1750 1777
e 1750 1778
e 1750 1779
e 1750 1780
e 1750 1781
e 1750 1782
e 1750 1783
e 1750 1784
e 1750 1785
e 1750 1786
e 1750 1787
e 1750 1788
e 1750 1789
e 1750 1790
e 1750 1791
e 1750 1792
e 1750 1793
e 1750 1794
e 1750 1795
e 1750 1796
e 1750 1797
e 1750 1798
e 1750 1799
e 1750 1800
e 1750 1801
e 1750 1802
e 1750 1803
e 1804 1805
e 1804 1806
e 1804 1807
e 1804 1808
e 1804 1809
e 1804 1810
e 1804 1811
e 1804 1812
e 1804 1813
e 1804 1814
e 1804 1815
e 1804 1816
e 1804 1817
e 1804 1818
e 1804 1819
e 1804 1820
e 1804 1821
e 1804 1822
e 1804 1823
e 1824 1825
e 1824 1826
e 1824 1827
e 1824 1828
e 1824 1829
e 1824 1830
e 1824 1831
e 1824 1832
e 1824 1833
e 1824 1834
e 1824 1835
e 1824 1836
e 1824 1837
e 1824 1838
e 1824 1839
e 1824 1840
e 1824 1841
e 1824 1842
e 1824 1843
e 1824 1844
e 1824 1845
e 1824 1846
e 1824 1847
e 1824 1848
e 1824 1849
e 1824 1850
e 1824 1851
e 1824 1852
e 1824 1853
e 1824 1854
e 1824 1855
e 1824 1856
e 1824 1857
e 1824 1858
e 1824 1859
e 1824 1860
e 1824 1861
e 1824 1862
e 1824 1863
e 1824 1864
e 1824 1865
e 1824 1866
e 1824 1867
e 1824 1868
e 1824 1869
e 1824 1870
e 1824 1871
e 1824 1872
e 1824 1873
e 1824 1874
e 1824 1875
e 1824 1876
e 1824 1877
e 1824 1878
e 1879 1880
e 1879 1881
e 1879 1882
e 1879 1883
e 1879 1884
e 1879 1885
e 1879 1886
e 1879 1887
e 1879 1888
e 1879 1889
e 1879 1890
e 1879 1891
e 1879 1892
e 1893 1894
e 1893 1895
e 1893 1896
e 1893 1897
e 1893 1898
e 1893 1899
e 1893 1900
e 1893 1901
e 1893 1902
e 1893 1903
e 1893 1904
e 1893 1905
e 1893 1906
e 1893 1907
e 1893 1908
e 1893 1909
e 1893 1910
e 1893 1911
e 1893 1912
e 1893 1913
e 1893 1914
e 1893 1915
e 1893 1916
e 1893 1917
e 1893 1918
e 1893 1919
e 1893 1920
e 1893 1921
e 1893 1922
e 1893 1923
e 1924 1925
e 1924 1926
e 1924 1927
e 1924 1928
e 1924 1929
e 1924 1930
e 1924 1931
e 1924 1932
e 1924 1933
e 1924 1934
e 1924 1935
e 1924 1936
e 1924 1937
e 1924 1938
e 1924 1939
e 1924 1940
e 1924 1941
e 1924 1942
e 1924 1943
e 1924 1944
e 1924 1945
e 1924 1946
e 1924 1947
e 1924 1948
e 1924 1949
e 1924 1950
e 1924 1951
e 1924 1952
e 1924 1953
e 1924 1954
e 1924 1955
e 1924 1956
e 1924 1957
e 1924 1958
e 1924 1959
e 1924 1960
e 1924 1961
e 1924 1962
e 1924 1963
e 1924 1964
e 1924 1965
e 1924 1966
e 1924 1967
e 1924 1968
e 1924 1969
e 1924 1970
e 1924 1971
e 1924 1972
e 1924 1973
e 1924 1974
e 1924 1975
e 1924 1976
e 1924 1977
e 1924 1978
e 1924 1979
e 1924 1980
e 1981 1982
e 1981 1983
e 1981 1984
e 1981 1985
e 1981 1986
e 1981 1987
e 1981 1988
e 1981 1989
e 1981 1990
e 1981 1991
e 1981 1992
e 1981 1993
e 1981 1994
e 1981 1995
e 1981 1996
e 1981 1997
e 1981 1998
e 1981 1999
e 1981 2000
e 1981 2001
e 1981 2002
e 1981 2003
e 1981 2004
e 1981 2005
e 1981 2006
e 1981 2007
e 1981 2008
e 1981 2009
e 1981 2010
e 1981 2011
e 1981 2012
e 1981 2013
e 1981 2014
e 1981 2015
e 1981 2016
e 1981 2017
e 1981 2018
e 1981 2019
e 1981 2020
e 1981 2021
e 1981 2022
e 1981 2023
e 1981 2024
e 1981 2025
e 1981 2026
e 1981 2027
e 1981 2028
e 1981 2029
e 2030 2031
e 2030 2032
e 2030 2033
e 2030 2034
e 2030 2035
e 2030 2036
e 2030 2037
e 2030 2038
e 2030 2039
e 2030 2040
e 2030 2041
e 2030 2042
e 2030 2043
e 2030 2044
e 2030 2045
e 2030 2046
e 2030 2047
e 2030 2048
e 2030 2049
e 2030 2050
e 2030 2051
e 2030 2052
e 2030 2053
e 2030 2054
e 2030 2055
e 2030 2056
e 2030 2057
e 2030 2058
e 2030 2059
e 2030 2060
e 2030 2061
e 2030 2062
e 2030 2063
e 2030 2064
e 2030 2065
e 2030 2066
e 2030 2067
e 2030 2068
e 2030 2069
e 2030 2070
e 2030 2071
e 2030 2072
e 2030 2073
e 2030 2074
e 2030 2075
e 2030 2076
e 2030 2077
e 2030 2078
e 2030 2079
e 2030 2080
e 2030 2081
e 2030 2082
e 2030 2083
e 2084 2085
e 2084 2086
e 2084 2087
e 2084 2088
e 2084 2089
e 2084 2090
e 2084 2091
e 2084 2092
e 2084 2093
e 2084 2094
e 2095 2096
e 2095 2097
e 2095 2098
e 2095 2099
e 2095 2100
e 2095 2101
e 2095 2102
e 2095 2103
e 2095 2104
e 2095 2105
e 2095 2106
e 2095 2107
e 2095 2108
e 2095 2109
e 2095 2110
e 2095 2111
e 2095 2112
e 2095 2113
e 2095 2114
e 2095 2115
e 2095 2116
e 2095 2117
e 2095 2118
e 2095 2119
e 2095 2120
e 2095 2121
e 2095 2122
e 2095 2123
e 2095 2124
e 2095 2125
e 2095 2126
e 2095 2127
e 2095 2128
e 2095 2129
e 2095 2130
e 2095 2131
e 2132 2133
e 2132 2134
e 2132 2135
e 2132 2136
e 2132 2137
e 2132 2138
e 2132 2139
e 2132 2140
e 2132 2141
e 2132 2142
e 2143 2144
e 2143 2145
e 2143 2146
e 2143 2147
e 2143 2148
e 2143 2149
e 2143 2150
e 2143 2151
e 2143 2152
e 2143 2153
e 2143 2154
e 2143 2155
e 2143 2156
e 2143 2157
e 2143 2158
e 2143 2159
e 2143 2160
e 2143 2161
e 2143 2162
e 2143 2163
e 2143 2164
e 2143 2165
e 2143 2166
e 2143 2167
e 2143 2168
e 2143 2169
e 2143 2170
e 2143 2171
e 2143 2172
e 2143 2173
e 2143 2174
e 2143 2175
e 2176 2177
e 2176 2178
e 2176 2179
e 2176 2180
e 2176 2181
e 2176 2182
e 2176 2183
e 2176 2184
e 2176 2185
e 2176 2186
e 2176 2187
e 2176 2188
e 2176 2189
e 2176 2190
e 2176 2191
e 2176 2192
e 2176 2193
e 2176 2194
e 2176 2195
e 2176 2196
e 2176 2197
e 2176 2198
e 2176 2199
e 2176 2200
e 2176 2201
e 2176 2202
e 2176 2203
e 2176 2204
e 2176 2205
e 2176 2206
e 2176 2207
e 2176 2208
e 2176 2209
e 2176 2210
e 2176 2211
e 2176 2212
e 2176 2213
e 2176 2214
e 2176 2215
e 2176 2216
e 2176 2217
e 2176 2218
e 2176 2219
e 2176 2220
e 2176 2221
e 2176 2222
e 2176 2223
e 2176 2224
e 2176 2225
e 2176 2226
e 2176 2227
e 2176 2228
e 2176 2229
e 2176 2230
e 2176 2231
e 2176 2232
e 2176 2233
e 2234 2235
e 2234 2236
e 2234 2237
e 2234 2238
e 2234 2239
e 2234 2240
e 2234 2241
e 2234 2242
e 2234 2243
e 2234 2244
e 2234 2245
e 2234 2246
e 2234 2247
e 2248 2249
e 2248 2250
e 2248 2251
e 2248 2252
e 2248 2253
e 2248 2254
e 2248 2255
e 2248 2256
e 2248 2257
e 2248 2258
e 2248 2259
e 2248 2260
e 2248 2261
e 2248 2262
e 2248 2263
e 2248 2264
e 2248 2265
e 2248 2266
e 2248 2267
e 2248 2268
e 2248 2269
e 2270 2271
e 2270 2272
e 2270 2273
e 2270 2274
e 2270 2275
e 2270 2276
e 2270 2277
e 2270 2278
e 2270 2279
e 2270 2280
e 2270 2281
e 2282 2283
e 2282 2284
e 2282 2285
e 2282 2286
e 2282 2287
e 2282 2288
e 2282 2289
e 2282 2290
e 2282 2291
e 2282 2292
e 2282 2293
e 2282 2294
e 2282 2295
e 2282 2296
e 2282 2297
e 2282 2298
e 2282 2299
e 2282 2300
e 2282 2301
e 2282 2302
e 2282 2303
e 2282 2304
e 2282 2305
e 2282 2306
e 2282 2307
e 2282 2308
e 2282 2309
e 2282 2310
e 2282 2311
e 2282 2312
e 2282 2313
e 2282 2314
e 2315 2316
e 2315 2317
e 2315 2318
e 2315 2319
e 2315 2320
e 2315 2321
e 2315 2322
e 2315 2323
e 2315 2324
e 2315 2325
e 2315 2326
e 2315 2327
e 2315 2328
e 2315 2329
e 2315 2330
e 2315 2331
e 2315 2332
e 2315 2333
e 2315 2334
e 2315 2335
e 2315 2336
e 2315 2337
e 2315 2338
e 2315 2339
e 2315 2340
e 2315 2341
e 2315 2342
e 2315 2343
e 2315 2344
e 2315 2345
e 2315 2346
e 2315 2347
e 2315 2348
e 2315 2349
e 2315 2350
e 2315 2351
e 2315 2352
e 2315 2353
e 2315 2354
e 2315 2355
e 2315 2356
e 2315 2357
e 2358 2359
e 2358 2360
e 2358 2361
e 2358 2362
e 2358 2363
e 2358 2364
e 2358 2365
e 2358 2366
e 2358 2367
e 2358 2368
e 2358 2369
e 2358 2370
e 2358 2371
e 2358 2372
e 2358 2373
e 2358 2374
e 2358 2375
e 2358 2376
e 2358 2377
e 2358 2378
e 2358 2379
e 2358 2380
e 2358 2381
e 2358 2382
e 2358 2383
e 2358 2384
e 2358 2385
e 2358 2386
e 2358 2387
e 2358 2388
e 2358 2389
e 2358 2390
e 2358 2391
e 2358 2392
e 2358 2393
e 2358 2394
e 2358 2395
e 2358 2396
e 2358 2397
e 2358 2398
e 2358 2399
e 2358 2400
e 2358 2401
e 2358 2402
e 2358 2403
e 2358 2404
e 2358 2405
e 2358 2406
e 2358 2407
e 2358 2408
e 2358 2409
e 2358 2410
e 2358 2411
e 2358 2412
e 2358 2413
e 2358 2414
e 2358 2415
e 2358 2416
e 2358 2417
e 2358 2418
e 2419 2420
e 2419 2421
e 2419 2422
e 2419 2423
e 2419 2424
e 2419 2425
e 2419 2426
e 2419 2427
e 2419 2428
e 2419 2429
e 2419 2430
e 2419 2431
e 2432 2433
e 2432 2434
e 2432 2435
e 2432 2436
e 2432 2437
e 2432 2438
e 2432 2439
e 2432 2440
e 2432 2441
e 2432 2442
e 2432 2443
e 2432 2444
e 2432 2445
e 2432 2446
e 2432 2447
e 2432 2448
e 2432 2449
e 2432 2450
e 2432 2451
e 2432 2452
e 2432 2453
e 2432 2454
e 2432 2455
e 2432 2456
e 2432 2457
e 2432 2458
e 2432 2459
e 2432 2460
e 2432 2461
e 2432 2462
e 2432 2463
e 2432 2464
e 2432 2465
e 2432 2466
e 2432 2467
e 2432 2468
e 2432 2469
e 2432 2470
e 2432 2471
e 2432 2472
e 2432 2473
e 2474 2475
e 2474 2476
e 2474 2477
e 2474 2478
e 2474 2479
e 2474 2480
e 2474 2481
e 2474 2482
e 2474 2483
e 2474 2484
e 2474 2485
e 2474 2486
e 2474 2487
e 2474 2488
e 2474 2489
e 2474 2490
e 2474 2491
e 2474 2492
e 2474 2493
e 2474 2494
e 2474 2495
e 2474 2496
e 2474 2497
e 2474 2498
e 2474 2499
e 2474 2500
e 2474 2501
e 2474 2502
e 2474 2503
e 2474 2504
e 2474 2505
e 2474 2506
e 2474 2507
e 2474 2508
e 2474 2509
e 2510 2511
e 2510 2512
e 2510 2513
e 2510 2514
e 2510 2515
e 2510 2516
e 2510 2517
e 2510 2518
e 2510 2519
e 2510 2520
e 2510 2521
e 2510 2522
e 2510 2523
e 2510 2524
e 2510 2525
e 2510 2526
e 2510 2527
e 2510 2528
e 2510 2529
e 2510 2530
e 2510 2531
e 2510 2532
e 2510 2533
e 2510 2534
e 2510 2535
e 2510 2536
e 2510 2537
e 2510 2538
e 2510 2539
e 2510 2540
e 2510 2541
e 2510 2542
e 2510 2543
e 2510 2544
e 2510 2545
e 2510 2546
e 2510 2547
e 2510 2548
e 2510 2549
e 2510 2550
e 2510 2551
e 2510 2552
e 2510 2553
e 2510 2554
e 2510 2555
e 2510 2556
e 2510 2557
e 2510 2558
e 2510 2559
e 2510 2560
e 2510 2561
e 2510 2562
e 2510 2563
e 2510 2564
e 2510 2565
e 2510 2566
e 2510 2567
e 2510 2568
e 2510 2569
e 2510 2570
e 2571 2572
e 2571 2573
e 2571 2574
e 2571 2575
e 2571 2576
e 2571 2577
e 2571 2578
e 2571 2579
e 2571 2580
e 2571 2581
e 2571 2582
e 2571 2583
e 2571 2584
e 2571 2585
e 2571 2586
e 2571 2587
e 2571 2588
e 2571 2589
e 2571 2590
e 2571 2591
e 2571 2592
e 2571 2593
e 2571 2594
e 2571 2595
e 2571 2596
e 2571 2597
e 2571 2598
e 2571 2599
e 2571 2600
e 2571 2601
e 2571 2602
e 2571 2603
e 2571 2604
e 2571 2605
e 2571 2606
e 2571 2607
e 2571 2608
e 2571 2609
e 2571 2610
e 2571 2611
e 2571 2612
e 2571 2613
e 2571 2614
e 2571 2615
e 2616 2617
e 2616 2618
e 2616 2619
e 2616 2620
e 2616 2621
e 2616 2622
e 2616 2623
e 2616 2624
e 2616 2625
e 2616 2626
e 2616 2627
e 2616 2628
e 2616 2629
e 2616 2630
e 2616 2631
e 2616 2632
e 2616 2633
e 2616 2634
e 2616 2635
e 2616 2636
e 2616 2637
e 2616 2638
e 2616 2639
e 2616 2640
e 2616 2641
e 2616 2642
e 2616 2643
e 2616 2644
e 2616 2645
e 2616 2646
e 2616 2647
e 2616 2648
e 2616 2649
e 2616 2650
e 2616 2651
e 2616 2652
e 2616 2653
e 2616 2654
e 2616 2655
e 2616 2656
e 2616 2657
e 2616 2658
e 2616 2659
e 2616 2660
e 2616 2661
e 2616 2662
e 2616 2663
e 2616 2664
e 2616 2665
e 2616 2666
e 2616 2667
e 2616 2668
e 2616 2669
e 2616 2670
e 2616 2671
e 2616 2672
e 2673 2674
e 2673 2675
e 2673 2676
e 2673 2677
e 2673 2678
e 2673 2679
e 2673 2680
e 2673 2681
e 2673 2682
e 2673 2683
e 2673 2684
e 2673 2685
e 2673 2686
e 2673 2687
e 2673 2688
e 2673 2689
e 2673 2690
e 2673 2691
e 2673 2692
e 2693 2694
e 2693 2695
e 2693 2696
e 2693 2697
e 2693 2698
e 2693 2699
e 2693 2700
e 2693 2701
e 2693 2702
e 2693 2703
e 2693 2704
e 2693 2705
e 2693 2706
e 2693 2707
e 2693 2708
e 2693 2709
e 2693 2710
e 2693 2711
e 2693 2712
e 2693 2713
e 2693 2714
e 2693 2715
e 2693 2716
e 2693 2717
e 2693 2718
e 2693 2719
e 2693 2720
e 2693 2721
e 2693 2722
e 2693 2723
e 2693 2724
e 2693 2725
e 2693 2726
e 2693 2727
e 2693 2728
e 2729 2730
e 2729 2731
e 2729 2732
e 2729 2733
e 2729 2734
e 2729 2735
e 2729 2736
e 2729 2737
e 2729 2738
e 2729 2739
e 2729 2740
e 2729 2741
e 2729 2742
e 2729 2743
e 2729 2744
e 2729 2745
e 2729 2746
e 2729 2747
e 2729 2748
e 2729 2749
e 2729 2750
e 2729 2751
e 2729 2752
e 2729 2753
e 2729 2754
e 2729 2755
e 2729 2756
e 2729 2757
e 2729 2758
e 2729 2759
e 2729 2760
e 2761 2762
e 2761 2763
e 2761 2764
e 2761 2765
e 2761 2766
e 2761 2767
e 2761 2768
e 2761 2769
e 2761 2770
e 2761 2771
e 2761 2772
e 2761 2773
e 2761 2774
e 2761 2775
e 2761 2776
e 2761 2777
e 2761 2778
e 2761 2779
e 2761 2780
e 2761 2781
e 2761 2782
e 2761 2783
e 2761 2784
e 2761 2785
e 2761 2786
e 2761 2787
e 2761 2788
e 2761 2789
e 2761 2790
e 2761 2791
e 2761 2792
e 2761 2793
e 2761 2794
e 2761 2795
e 2761 2796
e 2761 2797
e 2761 2798
e 2761 2799
e 2800 2801
e 2800 2802
e 2800 2803
e 2800 2804
e 2800 2805
e 2800 2806
e 2800 2807
e 2800 2808
e 2800 2809
e 2800 2810
e 2800 2811
e 2800 2812
e 2800 2813
e 2800 2814
e 2800 2815
e 2800 2816
e 2800 2817
e 2818 2819
e 2818 2820
e 2818 2821
e 2818 2822
e 2818 2823
e 2818 2824
e 2818 2825
e 2818 2826
e 2818 2827
e 2818 2828
e 2818 2829
e 2818 2830
e 2818 2831
e 2818 2832
e 2818 2833
e 2818 2834
e 2818 2835
e 2818 2836
e 2818 2837
e 2818 2838
e 2818 2839
e 2818 2840
e 2818 2841
e 2818 2842
e 2818 2843
e 2844 2845
e 2844 2846
e 2844 2847
e 2844 2848
e 2844 2849
e 2844 2850
e 2844 2851
e 2844 2852
e 2844 2853
e 2844 2854
e 2844 2855
e 2844 2856
e 2844 2857
e 2844 2858
e 2844 2859
e 2844 2860
e 2844 2861
e 2844 2862
e 2844 2863
e 2844 2864
e 2844 2865
e 2844 2866
e 2867 2868
e 2867 2869
e 2867 2870
e 2867 2871
e 2867 2872
e 2867 2873
e 2867 2874
e 2867 2875
e 2867 2876
e 2867 2877
e 2867 2878
e 2867 2879
e 2867 2880
e 2867 2881
e 2882 2883
e 2882 2884
e 2882 2885
e 2882 2886
e 2882 2887
e 2882 2888
e 2882 2889
e 2882 2890
e 2882 2891
e 2882 2892
e 2882 2893
e 2882 2894
e 2882 2895
e 2882 2896
e 2882 2897
e 2882 2898
e 2882 2899
e 2882 2900
e 2882 2901
e 2882 2902
e 2882 2903
e 2882 2904
e 2882 2905
e 2882 2906
e 2882 2907
e 2882 2908
e 2882 2909
e 2882 2910
e 2882 2911
e 2882 2912
e 2882 2913
e 2882 2914
e 2882 2915
e 2882 2916
e 2882 2917
e 2882 2918
e 2882 2919
e 2882 2920
e 2882 2921
e 2882 2922
e 2882 2923
e 2882 2924
e 2882 2925
e 2882 2926
e 2927 2928
e 2927 2929
e 2927 2930
e 2927 2931
e 2927 2932
e 2927 2933
e 2927 2934
e 2927 2935
e 2927 2936
e 2927 2937
e 2927 2938
e 2927 2939
e 2927 2940
e 2927 2941
e 2927 2942
e 2927 2943
e 2927 2944
e 2927 2945
e 2927 2946
e 2927 2947
e 2927 2948
e 2927 2949
e 2927 2950
e 2927 2951
e 2927 2952
e 2927 2953
e 2927 2954
e 2927 2955
e 2927 2956
e 2927 2957
e 2927 2958
e 2927 2959
e 2927 2960
e 2927 2961
e 2927 2962
e 2927 2963
e 2927 2964
e 2927 2965
e 2927 2966
e 2927 2967
e 2927 2968
e 2927 2969
e 2927 2970
e 2927 2971
e 2972 2973
e 2972 2974
e 2972 2975
e 2972 2976
e 2972 2977
e 2972 2978
e 2972 2979
e 2972 2980
e 2972 2981
e 2972 2982
e 2972 2983
e 2972 2984
e 2972 2985
e 2972 2986
e 2972 2987
e 2972 2988
e 2972 2989
e 2972 2990
e 2972 2991
e 2972 2992
e 2972 2993
e 2972 2994
e 2972 2995
e 2972 2996
e 2972 2997
e 2972 2998
e 2972 2999
e 2972 3000
e 2972 3001
e 2972 3002
e 2972 3003
e 2972 3004
e 2972 3005
e 2972 3006
e 2972 3007
e 2972 3008
e 2972 3009
e 2972 3010
e 2972 3011
e 2972 3012
e 3013 3014
e 3013 3015
e 3013 3016
e 3013 3017
e 3013 3018
e 3013 3019
e 3013 3020
e 3013 3021
e 3013 3022
e 3013 3023
e 3013 3024
e 3013 3025
e 3013 3026
e 3013 3027
e 3013 3028
e 3013 3029
e 3013 3030
e 3013 3031
e 3032 3033
e 3032 3034
e 3032 3035
e 3032 3036
e 3032 3037
e 3032 3038
e 3032 3039
e 3032 3040
e 3032 3041
e 3032 3042
e 3032 3043
e 3032 3044
e 3032 3045
e 3032 3046
e 3032 3047
e 3032 3048
e 3032 3049
e 3032 3050
e 3032 3051
e 3032 3052
e 3032 3053
e 3032 3054
e 3032 3055
e 3032 3056
e 3032 3057
e 3032 3058
e 3032 3059
e 3060 3061
e 3060 3062
e 3060 3063
e 3060 3064
e 3060 3065
e 3060 3066
e 3060 3067
e 3060 3068
e 3060 3069
e 3060 3070
e 3060 3071
e 3060 3072
e 3060 3073
e 3060 3074
e 3060 3075
e 3060 3076
e 3060 3077
e 3060 3078
e 3060 3079
e 3060 3080
e 3060 3081
e 3060 3082
e 3060 3083
e 3060 3084
e 3060 3085
e 3060 3086
e 3060 3087
e 3060 3088
e 3060 3089
e 3060 3090
e 3060 3091
e 3060 3092
e 3060 3093
e 3060 3094
e 3060 3095
e 3060 3096
e 3060 3097
e 3060 3098
e 3060 3099
e 3060 3100
e 3060 3101
e 3060 3102
e 3060 3103
e 3060 3104
e 3060 3105
e 3060 3106
e 3060 3107
e 3108 3109
e 3108 3110
e 3108 3111
e 3108 3112
e 3108 3113
e 3108 3114
e 3108 3115
e 3108 3116
e 3108 3117
e 3108 3118
e 3119 3120
e 3119 3121
e 3119 3122
e 3119 3123
e 3119 3124
e 3119 3125
e 3119 3126
e 3119 3127
e 3119 3128
e 3119 3129
e 3119 3130
e 3119 3131
e 3119 3132
e 3119 3133
e 3119 3134
e 3119 3135
e 3119 3136
e 3119 3137
e 3119 3138
e 3119 3139
e 3119 3140
e 3119 3141
e 3119 3142
e 3119 3143
e 3119 3144
e 3119 3145
e 3119 3146
e 3119 3147
e 3148 3149
e 3148 3150
e 3148 3151
e 3148 3152
e 3148 3153
e 3148 3154
e 3148 3155
e 3148 3156
e 3148 3157
e 3148 3158
e 3148 3159
e 3148 3160
e 3148 3161
e 3148 3162
e 3148 3163
e 3148 3164
e 3148 3165
e 3148 3166
e 3148 3167
e 3148 3168
e 3148 3169
e 3148 3170
